Route #1: 1 5 36 42 28 26 33 30 41 6 22 1
Route #2: 1 34 21 19 20 15 29 38 13 32 1
Route #3: 1 27 43 35 40 18 8 17 16 39 1
Route #4: 1 10 7 25 23 4 31 1
Route #5: 1 2 24 9 3 37 11 1
Route #6: 1 14 12 1
cost 823.2160273451211
